0 37 90 54 82 45 90 86 15 46
37 0 63 96 1 68 98 54 31 3
90 63 0 40 82 58 98 68 31 31
54 96 40 0 17 90 96 62 81 61
82 1 82 17 0 38 74 89 66 56
45 68 58 90 38 0 33 33 22 26
90 98 98 96 74 33 0 34 59 74
86 54 68 62 89 33 34 0 5 42
15 31 31 81 66 22 59 5 0 31
46 3 31 61 56 26 74 42 31 0
